861
8040
3054
5614
8470
5600
6536
3779
9950
4803
5667
5422
815
6990
5598
702
2182
1587
7077
4888
6285
3383
2498
10055
10186
1808
1299
8009
985
6820
9263
10038
2695
7537
1600
1120
824
1072
2350
4914
6901
3391
5214
10156
3110
6792
3930
6126
5774
2708
